15
2 0 1
3 1 3
4 1 6
4 3 7
5 0 8
5 4 8
6 3 7
6 4 4
7 0 6
7 1 8
7 3 7
8 2 2
8 3 5
8 6 7
9 1 4
9 3 9
9 4 3
9 5 3
9 8 1
10 0 8
10 2 1
10 5 2
10 6 6
10 8 3
10 9 4
11 2 2
11 3 8
11 4 5
11 5 7
11 6 5
11 7 6
11 9 1
11 10 1
12 1 1
12 5 7
12 6 4
12 7 2
12 8 3
12 9 3
13 0 9
13 4 3
13 5 4
13 8 1
13 10 6
13 11 8
14 0 1
14 4 6
14 8 4
14 9 2
